ACTORES = {Actor0, Actor1, Actor2, Actor3, Actor4};
Escenas =[|0,1,0,0,1,1,1,0,1,0,1,0,0,1,0,0,0,0,1,0,10
		  |0,1,0,1,1,1,1,0,0,1,1,0,1,1,0,1,0,0,1,1,10
		  |1,1,1,0,0,0,0,0,1,0,1,0,0,1,0,1,0,0,0,0,10
		  |0,1,0,0,1,1,1,0,1,1,1,0,1,1,0,0,0,1,1,1,14
		  |0,0,0,1,1,1,1,1,1,0,0,0,1,1,0,1,1,1,0,0,17
		  |];
Duracion=[1, 1, 3, 4, 3, 4, 3, 3, 3, 5, 3, 5, 4, 2, 2, 4, 3, 1, 3, 4];